WARNING: for repeatability, setting FPU to use double precision
============================[ Problem Statistics ]=============================
|                                                                             |
|  Number of variables:            50                                         |
|  Number of clauses:             218                                         |
|  Parse time:                   0.00 s                                       |
|                                                                             |
============================[ Search Statistics ]==============================
| Conflicts |          ORIGINAL         |          LEARNT          | Progress |
|           |    Vars  Clauses Literals |    Limit  Clauses Lit/Cl |          |
===============================================================================
===============================================================================
restarts              : 1
conflicts             : 34             (24096 /sec)
decisions             : 37             (0.00 % random) (26223 /sec)
propagations          : 488            (345854 /sec)
conflict literals     : 103            (12.71 % deleted)
Memory used           : 20.00 MB
CPU time              : 0.001411 s

UNSATISFIABLE
